# Solution for model FSG
# Objective value = 3.4238758016988559e+03
x_0_1 0
x_0_2 0
x_0_3 1
x_0_4 0
x_0_5 1
x_0_6 0
x_0_7 0
x_0_8 0
x_0_9 0
x_0_10 0
x_0_11 0
x_1_2 0
x_1_3 0
x_1_4 0
x_1_5 0
x_1_6 1
x_1_7 0
x_1_8 0
x_1_9 0
x_1_10 0
x_1_11 0
x_2_1 0
x_2_3 0
x_2_4 0
x_2_5 0
x_2_6 0
x_2_7 0
x_2_8 0
x_2_9 0
x_2_10 0
x_2_11 1
x_3_1 0
x_3_2 0
x_3_4 1
x_3_5 0
x_3_6 0
x_3_7 0
x_3_8 0
x_3_9 0
x_3_10 0
x_3_11 0
x_4_1 0
x_4_2 0
x_4_3 0
x_4_5 0
x_4_6 0
x_4_7 0
x_4_8 0
x_4_9 1
x_4_10 0
x_4_11 0
x_5_1 0
x_5_2 0
x_5_3 0
x_5_4 0
x_5_6 0
x_5_7 0
x_5_8 1
x_5_9 0
x_5_10 0
x_5_11 0
x_6_1 0
x_6_2 0
x_6_3 0
x_6_4 0
x_6_5 0
x_6_7 1
x_6_8 0
x_6_9 0
x_6_10 0
x_6_11 0
x_7_1 0
x_7_2 0
x_7_3 0
x_7_4 0
x_7_5 0
x_7_6 0
x_7_8 0
x_7_9 0
x_7_10 1
x_7_11 0
x_8_1 1
x_8_2 0
x_8_3 0
x_8_4 0
x_8_5 0
x_8_6 0
x_8_7 0
x_8_9 0
x_8_10 0
x_8_11 0
x_9_1 0
x_9_2 1
x_9_3 0
x_9_4 0
x_9_5 0
x_9_6 0
x_9_7 0
x_9_8 0
x_9_10 0
x_9_11 0
U_1_1 0
U_1_2 1
U_1_3 0
U_2_1 0
U_2_2 0
U_2_3 1
U_3_1 0
U_3_2 1
U_3_3 0
U_4_1 0
U_4_2 1
U_4_3 0
U_5_1 1
U_5_2 0
U_5_3 0
U_6_1 0
U_6_2 1
U_6_3 0
U_7_1 0
U_7_2 0
U_7_3 1
U_8_1 1
U_8_2 0
U_8_3 0
U_9_1 0
U_9_2 1
U_9_3 0
U_10_1 0
U_10_2 0
U_10_3 1
U_11_1 0
U_11_2 0
U_11_3 1
TBar_0 0
TBar_1 1.4699790845444280e+01
TBar_2 2.0933152151941016e+01
TBar_3 10
TBar_4 1.4344099446375509e+01
TBar_5 4.8494416432283067e+00
TBar_6 1.9099893116982976e+01
TBar_7 2.4008589481599543e+01
TBar_8 7.4914484562399508e+00
TBar_9 1.7808908243408904e+01
TBar_10 30
TBar_11 2.5912630036217642e+01
y_0_1_1 0
y_0_1_2 0
y_0_1_3 0
y_0_1_4 0
y_0_1_5 0
y_0_2_1 0
y_0_2_2 0
y_0_2_3 0
y_0_2_4 0
y_0_2_5 0
y_0_3_1 0
y_0_3_2 0
y_0_3_3 0
y_0_3_4 0
y_0_3_5 0
y_0_4_1 0
y_0_4_2 0
y_0_4_3 0
y_0_4_4 0
y_0_4_5 0
y_0_5_1 0
y_0_5_2 0
y_0_5_3 0
y_0_5_4 0
y_0_5_5 0
y_0_6_1 0
y_0_6_2 0
y_0_6_3 0
y_0_6_4 0
y_0_6_5 0
y_0_7_1 0
y_0_7_2 0
y_0_7_3 0
y_0_7_4 0
y_0_7_5 0
y_0_8_1 0
y_0_8_2 0
y_0_8_3 0
y_0_8_4 0
y_0_8_5 0
y_0_9_1 0
y_0_9_2 0
y_0_9_3 0
y_0_9_4 0
y_0_9_5 0
y_0_10_1 0
y_0_10_2 0
y_0_10_3 0
y_0_10_4 0
y_0_10_5 0
y_0_11_1 0
y_0_11_2 0
y_0_11_3 0
y_0_11_4 0
y_0_11_5 0
y_1_2_1 0
y_1_2_2 0
y_1_2_3 0
y_1_2_4 0
y_1_2_5 0
y_1_3_1 0
y_1_3_2 0
y_1_3_3 0
y_1_3_4 0
y_1_3_5 0
y_1_4_1 0
y_1_4_2 0
y_1_4_3 0
y_1_4_4 0
y_1_4_5 0
y_1_5_1 0
y_1_5_2 0
y_1_5_3 0
y_1_5_4 0
y_1_5_5 0
y_1_6_1 0
y_1_6_2 0
y_1_6_3 0
y_1_6_4 0
y_1_6_5 0
y_1_7_1 0
y_1_7_2 0
y_1_7_3 0
y_1_7_4 0
y_1_7_5 0
y_1_8_1 0
y_1_8_2 0
y_1_8_3 0
y_1_8_4 0
y_1_8_5 0
y_1_9_1 0
y_1_9_2 0
y_1_9_3 0
y_1_9_4 0
y_1_9_5 0
y_1_10_1 0
y_1_10_2 0
y_1_10_3 0
y_1_10_4 0
y_1_10_5 0
y_1_11_1 0
y_1_11_2 0
y_1_11_3 0
y_1_11_4 0
y_1_11_5 0
y_2_1_1 0
y_2_1_2 0
y_2_1_3 0
y_2_1_4 0
y_2_1_5 0
y_2_3_1 0
y_2_3_2 0
y_2_3_3 0
y_2_3_4 0
y_2_3_5 0
y_2_4_1 0
y_2_4_2 0
y_2_4_3 0
y_2_4_4 0
y_2_4_5 0
y_2_5_1 0
y_2_5_2 0
y_2_5_3 0
y_2_5_4 0
y_2_5_5 0
y_2_6_1 0
y_2_6_2 0
y_2_6_3 0
y_2_6_4 0
y_2_6_5 0
y_2_7_1 0
y_2_7_2 0
y_2_7_3 0
y_2_7_4 0
y_2_7_5 0
y_2_8_1 0
y_2_8_2 0
y_2_8_3 0
y_2_8_4 0
y_2_8_5 0
y_2_9_1 0
y_2_9_2 0
y_2_9_3 0
y_2_9_4 0
y_2_9_5 0
y_2_10_1 0
y_2_10_2 0
y_2_10_3 0
y_2_10_4 0
y_2_10_5 0
y_2_11_1 1
y_2_11_2 1
y_2_11_3 1
y_2_11_4 1
y_2_11_5 1
y_3_1_1 0
y_3_1_2 0
y_3_1_3 0
y_3_1_4 0
y_3_1_5 0
y_3_2_1 0
y_3_2_2 0
y_3_2_3 0
y_3_2_4 0
y_3_2_5 0
y_3_4_1 0
y_3_4_2 0
y_3_4_3 0
y_3_4_4 0
y_3_4_5 0
y_3_5_1 0
y_3_5_2 0
y_3_5_3 0
y_3_5_4 0
y_3_5_5 0
y_3_6_1 0
y_3_6_2 0
y_3_6_3 0
y_3_6_4 0
y_3_6_5 0
y_3_7_1 0
y_3_7_2 0
y_3_7_3 0
y_3_7_4 0
y_3_7_5 0
y_3_8_1 0
y_3_8_2 0
y_3_8_3 0
y_3_8_4 0
y_3_8_5 0
y_3_9_1 0
y_3_9_2 0
y_3_9_3 0
y_3_9_4 0
y_3_9_5 0
y_3_10_1 0
y_3_10_2 0
y_3_10_3 0
y_3_10_4 0
y_3_10_5 0
y_3_11_1 0
y_3_11_2 0
y_3_11_3 0
y_3_11_4 0
y_3_11_5 0
y_4_1_1 0
y_4_1_2 0
y_4_1_3 0
y_4_1_4 0
y_4_1_5 0
y_4_2_1 0
y_4_2_2 0
y_4_2_3 0
y_4_2_4 0
y_4_2_5 0
y_4_3_1 0
y_4_3_2 0
y_4_3_3 0
y_4_3_4 0
y_4_3_5 0
y_4_5_1 0
y_4_5_2 0
y_4_5_3 0
y_4_5_4 0
y_4_5_5 0
y_4_6_1 0
y_4_6_2 0
y_4_6_3 0
y_4_6_4 0
y_4_6_5 0
y_4_7_1 0
y_4_7_2 0
y_4_7_3 0
y_4_7_4 0
y_4_7_5 0
y_4_8_1 0
y_4_8_2 0
y_4_8_3 0
y_4_8_4 0
y_4_8_5 0
y_4_9_1 1
y_4_9_2 1
y_4_9_3 1
y_4_9_4 1
y_4_9_5 1
y_4_10_1 0
y_4_10_2 0
y_4_10_3 0
y_4_10_4 0
y_4_10_5 0
y_4_11_1 0
y_4_11_2 0
y_4_11_3 0
y_4_11_4 0
y_4_11_5 0
y_5_1_1 0
y_5_1_2 0
y_5_1_3 0
y_5_1_4 0
y_5_1_5 0
y_5_2_1 0
y_5_2_2 0
y_5_2_3 0
y_5_2_4 0
y_5_2_5 0
y_5_3_1 0
y_5_3_2 0
y_5_3_3 0
y_5_3_4 0
y_5_3_5 0
y_5_4_1 0
y_5_4_2 0
y_5_4_3 0
y_5_4_4 0
y_5_4_5 0
y_5_6_1 0
y_5_6_2 0
y_5_6_3 0
y_5_6_4 0
y_5_6_5 0
y_5_7_1 0
y_5_7_2 0
y_5_7_3 0
y_5_7_4 0
y_5_7_5 0
y_5_8_1 0
y_5_8_2 0
y_5_8_3 0
y_5_8_4 0
y_5_8_5 0
y_5_9_1 0
y_5_9_2 0
y_5_9_3 0
y_5_9_4 0
y_5_9_5 0
y_5_10_1 0
y_5_10_2 0
y_5_10_3 0
y_5_10_4 0
y_5_10_5 0
y_5_11_1 0
y_5_11_2 0
y_5_11_3 0
y_5_11_4 0
y_5_11_5 0
y_6_1_1 0
y_6_1_2 0
y_6_1_3 0
y_6_1_4 0
y_6_1_5 0
y_6_2_1 0
y_6_2_2 0
y_6_2_3 0
y_6_2_4 0
y_6_2_5 0
y_6_3_1 0
y_6_3_2 0
y_6_3_3 0
y_6_3_4 0
y_6_3_5 0
y_6_4_1 0
y_6_4_2 0
y_6_4_3 0
y_6_4_4 0
y_6_4_5 0
y_6_5_1 0
y_6_5_2 0
y_6_5_3 0
y_6_5_4 0
y_6_5_5 0
y_6_7_1 1
y_6_7_2 1
y_6_7_3 1
y_6_7_4 1
y_6_7_5 1
y_6_8_1 0
y_6_8_2 0
y_6_8_3 0
y_6_8_4 0
y_6_8_5 0
y_6_9_1 0
y_6_9_2 0
y_6_9_3 0
y_6_9_4 0
y_6_9_5 0
y_6_10_1 0
y_6_10_2 0
y_6_10_3 0
y_6_10_4 0
y_6_10_5 0
y_6_11_1 0
y_6_11_2 0
y_6_11_3 0
y_6_11_4 0
y_6_11_5 0
y_7_1_1 0
y_7_1_2 0
y_7_1_3 0
y_7_1_4 0
y_7_1_5 0
y_7_2_1 0
y_7_2_2 0
y_7_2_3 0
y_7_2_4 0
y_7_2_5 0
y_7_3_1 0
y_7_3_2 0
y_7_3_3 0
y_7_3_4 0
y_7_3_5 0
y_7_4_1 0
y_7_4_2 0
y_7_4_3 0
y_7_4_4 0
y_7_4_5 0
y_7_5_1 0
y_7_5_2 0
y_7_5_3 0
y_7_5_4 0
y_7_5_5 0
y_7_6_1 0
y_7_6_2 0
y_7_6_3 0
y_7_6_4 0
y_7_6_5 0
y_7_8_1 0
y_7_8_2 0
y_7_8_3 0
y_7_8_4 0
y_7_8_5 0
y_7_9_1 0
y_7_9_2 0
y_7_9_3 0
y_7_9_4 0
y_7_9_5 0
y_7_10_1 1
y_7_10_2 1
y_7_10_3 1
y_7_10_4 1
y_7_10_5 1
y_7_11_1 0
y_7_11_2 0
y_7_11_3 0
y_7_11_4 0
y_7_11_5 0
y_8_1_1 0
y_8_1_2 0
y_8_1_3 0
y_8_1_4 0
y_8_1_5 0
y_8_2_1 0
y_8_2_2 0
y_8_2_3 0
y_8_2_4 0
y_8_2_5 0
y_8_3_1 0
y_8_3_2 0
y_8_3_3 0
y_8_3_4 0
y_8_3_5 0
y_8_4_1 0
y_8_4_2 0
y_8_4_3 0
y_8_4_4 0
y_8_4_5 0
y_8_5_1 0
y_8_5_2 0
y_8_5_3 0
y_8_5_4 0
y_8_5_5 0
y_8_6_1 0
y_8_6_2 0
y_8_6_3 0
y_8_6_4 0
y_8_6_5 0
y_8_7_1 0
y_8_7_2 0
y_8_7_3 0
y_8_7_4 0
y_8_7_5 0
y_8_9_1 0
y_8_9_2 0
y_8_9_3 0
y_8_9_4 0
y_8_9_5 0
y_8_10_1 0
y_8_10_2 0
y_8_10_3 0
y_8_10_4 0
y_8_10_5 0
y_8_11_1 0
y_8_11_2 0
y_8_11_3 0
y_8_11_4 0
y_8_11_5 0
y_9_1_1 0
y_9_1_2 0
y_9_1_3 0
y_9_1_4 0
y_9_1_5 0
y_9_2_1 1
y_9_2_2 1
y_9_2_3 1
y_9_2_4 1
y_9_2_5 1
y_9_3_1 0
y_9_3_2 0
y_9_3_3 0
y_9_3_4 0
y_9_3_5 0
y_9_4_1 0
y_9_4_2 0
y_9_4_3 0
y_9_4_4 0
y_9_4_5 0
y_9_5_1 0
y_9_5_2 0
y_9_5_3 0
y_9_5_4 0
y_9_5_5 0
y_9_6_1 0
y_9_6_2 0
y_9_6_3 0
y_9_6_4 0
y_9_6_5 0
y_9_7_1 0
y_9_7_2 0
y_9_7_3 0
y_9_7_4 0
y_9_7_5 0
y_9_8_1 0
y_9_8_2 0
y_9_8_3 0
y_9_8_4 0
y_9_8_5 0
y_9_10_1 0
y_9_10_2 0
y_9_10_3 0
y_9_10_4 0
y_9_10_5 0
y_9_11_1 0
y_9_11_2 0
y_9_11_3 0
y_9_11_4 0
y_9_11_5 0
Q_0_1 0
Q_0_2 0
Q_0_3 0
Q_0_4 0
Q_0_5 0
Q_1_1 1.2405999999999968e+02
Q_1_2 1.2538499999999969e+02
Q_1_3 131.7
Q_1_4 1.1752999999999969e+02
Q_1_5 1.1941999999999967e+02
Q_2_1 2.9128499999999963e+02
Q_2_2 2.8708999999999889e+02
Q_2_3 291.3
Q_2_4 2.9874499999999881e+02
Q_2_5 2.8690499999999889e+02
Q_3_1 4.7174999999999130e+01
Q_3_2 5.0374999999999133e+01
Q_3_3 4.4504999999999129e+01
Q_3_4 51.7
Q_3_5 5.1124999999999133e+01
Q_4_1 157.16
Q_4_2 1.6247499999999920e+02
Q_4_3 1.5353999999999922e+02
Q_4_4 1.6339499999999919e+02
Q_4_5 1.6421499999999921e+02
Q_5_1 35
Q_5_2 2.9194999999999563e+01
Q_5_3 3.7444999999999567e+01
Q_5_4 3.8944999999999567e+01
Q_5_5 3.1804999999999563e+01
Q_6_1 1.9397999999999854e+02
Q_6_2 1.9066499999999934e+02
Q_6_3 2.0528999999999860e+02
Q_6_4 1.8977999999999935e+02
Q_6_5 1.8592499999999916e+02
Q_7_1 2.9780999999999727e+02
Q_7_2 2.9110999999999848e+02
Q_7_3 3.1561499999999739e+02
Q_7_4 2.9340999999999849e+02
Q_7_5 294.8
Q_8_1 8.2415000000000333e+01
Q_8_2 8.1920000000000357e+01
Q_8_3 9.0635000000000346e+01
Q_8_4 8.1395000000000351e+01
Q_8_5 7.4840000000000344e+01
Q_9_1 2.3124499999999949e+02
Q_9_2 2.3095499999999871e+02
Q_9_3 2.2466499999999871e+02
Q_9_4 2.3578499999999866e+02
Q_9_5 233.55
Q_10_1 2.9780999999999693e+02
Q_10_2 2.9110999999999831e+02
Q_10_3 3.1561499999999705e+02
Q_10_4 2.9340999999999838e+02
Q_10_5 294.8
Q_11_1 2.9128499999999963e+02
Q_11_2 2.8708999999999889e+02
Q_11_3 291.3
Q_11_4 2.9874499999999881e+02
Q_11_5 2.8690499999999889e+02
R_10_1 1.4780999999999693e+02
R_10_2 1.4110999999999831e+02
R_10_3 1.6561499999999705e+02
R_10_4 1.4340999999999838e+02
R_10_5 144.8
R_11_1 1.4128499999999963e+02
R_11_2 1.3708999999999889e+02
R_11_3 141.3
R_11_4 1.4874499999999881e+02
R_11_5 1.3690499999999889e+02
L_1_1 6.095
L_1_2 6.895
L_1_3 6.07
L_1_4 7.105
L_1_5 4.475
L_2_1 0
L_2_2 0
L_2_3 0
L_2_4 0
L_2_5 0
L_3_1 7.025
L_3_2 5.345
L_3_3 6.07
L_3_4 3.555
L_3_5 6.66
L_4_1 12.69
L_4_2 13.73
L_4_3 5.44
L_4_4 11.15
L_4_5 5.45
L_5_1 10.98
L_5_2 8.59
L_5_3 8.4349999999999987e+00
L_5_4 8.78
L_5_5 5.365
L_6_1 5.6
L_6_2 7.205
L_6_3 5.035
L_6_4 4.655
L_6_5 6.1
L_7_1 0
L_7_2 0
L_7_3 0
L_7_4 0
L_7_5 0
L_8_1 9.98
L_8_2 1.1635000000000002e+01
L_8_3 7.82
L_8_4 9.125
L_8_5 10.945
L_9_1 3.435
L_9_2 4.675
L_9_3 5.99
L_9_4 3.01
L_9_5 4.11
rho_1_1 0
rho_1_2 0
rho_1_3 0
rho_1_4 0
rho_1_5 0
rho_2_1 1
rho_2_2 1
rho_2_3 1
rho_2_4 1
rho_2_5 1
rho_3_1 0
rho_3_2 0
rho_3_3 0
rho_3_4 0
rho_3_5 0
rho_4_1 1
rho_4_2 1
rho_4_3 1
rho_4_4 1
rho_4_5 1
rho_5_1 0
rho_5_2 0
rho_5_3 0
rho_5_4 0
rho_5_5 0
rho_6_1 1
rho_6_2 1
rho_6_3 1
rho_6_4 1
rho_6_5 1
rho_7_1 1
rho_7_2 1
rho_7_3 1
rho_7_4 1
rho_7_5 1
rho_8_1 0
rho_8_2 0
rho_8_3 0
rho_8_4 0
rho_8_5 0
rho_9_1 1
rho_9_2 1
rho_9_3 1
rho_9_4 1
rho_9_5 1
lambd_1_1 0
lambd_1_2 0
lambd_1_3 0
lambd_1_4 0
lambd_1_5 0
lambd_2_1 0
lambd_2_2 0
lambd_2_3 0
lambd_2_4 0
lambd_2_5 0
lambd_3_1 0
lambd_3_2 0
lambd_3_3 0
lambd_3_4 0
lambd_3_5 0
lambd_4_1 0
lambd_4_2 0
lambd_4_3 0
lambd_4_4 0
lambd_4_5 0
lambd_5_1 0
lambd_5_2 0
lambd_5_3 0
lambd_5_4 0
lambd_5_5 0
lambd_6_1 0
lambd_6_2 0
lambd_6_3 0
lambd_6_4 0
lambd_6_5 0
lambd_7_1 0
lambd_7_2 0
lambd_7_3 0
lambd_7_4 0
lambd_7_5 0
lambd_8_1 0
lambd_8_2 0
lambd_8_3 0
lambd_8_4 0
lambd_8_5 0
lambd_9_1 0
lambd_9_2 0
lambd_9_3 0
lambd_9_4 0
lambd_9_5 0
alpha_1_1 0
alpha_1_2 0
alpha_1_3 0
alpha_1_4 0
alpha_1_5 0
alpha_2_1 0
alpha_2_2 0
alpha_2_3 0
alpha_2_4 0
alpha_2_5 0
alpha_3_1 0
alpha_3_2 0
alpha_3_3 0
alpha_3_4 0
alpha_3_5 0
alpha_4_1 1
alpha_4_2 1
alpha_4_3 1
alpha_4_4 1
alpha_4_5 1
alpha_5_1 0
alpha_5_2 0
alpha_5_3 0
alpha_5_4 0
alpha_5_5 0
alpha_6_1 1
alpha_6_2 1
alpha_6_3 1
alpha_6_4 1
alpha_6_5 1
alpha_7_1 0
alpha_7_2 0
alpha_7_3 0
alpha_7_4 0
alpha_7_5 0
alpha_8_1 0
alpha_8_2 0
alpha_8_3 0
alpha_8_4 0
alpha_8_5 0
alpha_9_1 0
alpha_9_2 0
alpha_9_3 0
alpha_9_4 0
alpha_9_5 0
